title F-_2H2O
gap 0.8
box 30 30 30 
atoms  water 2 fluorine 1 
pop 20
restart 1
memory 3200 4
header
# b3lyp/6-311++g** opt(MaxC=1000) maxdisk=200gb scfcyc=2048
-1 1
water
O      0.000000    0.000000    0.117059
H      0.000000    0.763523   -0.468238
H      0.000000   -0.763523   -0.468238
fluorine
F      -0.000048   0.741721   -0.000123

